DATASET = "thpack2";
INSTANCE = "015";

WIDTH = 233;
HEIGHT = 220;
LENGTH = 587;

NO_OF_SHAPES = 5;
size = [|
  100,44,37 |
  90,78,55 |
  65,57,42 |
  85,58,41 |
  81,69,50 |
|];

verticality = [|
  0,1,1 |
  1,1,1 |
  1,1,1 |
  0,1,1 |
  1,1,1 |
|];

box_count = [
  21,
  24,
  27,
  29,
  26,
];
